NAME: random-26-31772
TYPE: TSP
COMMENT: size=26 seed=31772
DIMENSION: 54
EDGE_WEIGHT_TYPE: EUC_2D
NODE_COORD_SECTION
+0 4 415
-0 4 415
+1 191 452
-1 350 320
+2 2 389
-2 632 586
+3 377 18
-3 358 953
+4 463 920
-4 373 883
+5 108 928
-5 684 237
+6 372 849
-6 541 544
+7 553 754
-7 350 920
+8 578 448
-8 578 760
+9 88 324
-9 899 83
+10 868 385
-10 276 447
+11 520 217
-11 20 376
+12 160 949
-12 381 950
+13 138 870
-13 838 650
+14 49 872
-14 271 288
+15 310 389
-15 87 536
+16 863 498
-16 859 322
+17 552 355
-17 580 344
+18 679 685
-18 123 276
+19 924 415
-19 582 378
+20 33 567
-20 500 941
+21 629 893
-21 83 479
+22 334 599
-22 513 352
+23 516 275
-23 884 886
+24 228 972
-24 404 709
+25 835 182
-25 537 961
+26 463 562
-26 26 134
PRECEDENCE_SECTION
+0 -0
+1 -1
+2 -2
+3 -3
+4 -4
+5 -5
+6 -6
+7 -7
+8 -8
+9 -9
+10 -10
+11 -11
+12 -12
+13 -13
+14 -14
+15 -15
+16 -16
+17 -17
+18 -18
+19 -19
+20 -20
+21 -21
+22 -22
+23 -23
+24 -24
+25 -25
+26 -26
EOF
